
--- Job DIETER.gms Start 11/24/18 19:24:12 24.7.4 r58773 WEX-WEI x86 64bit/MS Windows
GAMS 24.7.4   Copyright (C) 1987-2016 GAMS Development. All rights reserved
Licensee: Medium MUD - 10 User License                   S170316:1123AO-GEN
          Deutsches Institut fuer Wirtschaftsforschung DIW, AbteilungDC3975
          License for teaching and research at degree granting institutions
          License Admin: Claudia Kemfert, bbibra@diw.de                    
--- Starting compilation
--- DIETER.gms(163) 3 Mb
--- .dataload.gms(405) 3 Mb
--- GDXin=C:\Users\Lenovo\Documents\GitHub\prosumage\Code\Prosumage_Opt\Dieter_Module\Original\Data_input.gdx
--- .dataload.gms(457) 3 Mb
--- GDXin=C:\Users\Lenovo\Documents\GitHub\prosumage\Code\Prosumage_Opt\Dieter_Module\Original\time_series.gdx
--- .dataload.gms(787) 25 Mb
--- DIETER.gms(306) 25 Mb
--- .model.gms(1354) 25 Mb
--- DIETER.gms(485) 25 Mb
--- .fix.gms(329) 25 Mb
--- DIETER.gms(486) 25 Mb
--- .scenario.gms(122) 25 Mb
--- DIETER.gms(649) 25 Mb
--- .report.gms(1411) 25 Mb
--- DIETER.gms(680) 26 Mb
--- Starting execution: elapsed 0:00:00.219
--- DIETER.gms(3237) 181 Mb
---
--- collecting and writing gdx file 
---
--- Generating LP model DIETER
--- DIETER.gms(1362) 197 Mb  19 secs
--- DIETER.gms(1440) 222 Mb  30 secs
--- DIETER.gms(1632) 277 Mb  55 secs
--- DIETER.gms(1658) 278 Mb  6 secs
--- DIETER.gms(3237) 280 Mb
---   271,592 rows  324,136 columns  1,248,832 non-zeroes
---   122,646 nl-code  87,601 nl-non-zeroes
--- DIETER.gms(3237) 278 Mb
--- Executing CPLEX: elapsed 0:01:59.337

GUSS             24.7.4 r58773 Released Sep 19, 2016 WEI x86 64bit/MS Windows 
Reading parameter(s) from scenario dictionary
>>  Logoption 2
>>  Optfile 1
>>  Skipbasecase 1
--- Scenario Variable with potential updates identified: phi_min_res

IBM ILOG CPLEX   24.7.4 r58773 Released Sep 19, 2016 WEI x86 64bit/MS Windows 
--- GAMS/Cplex licensed for continuous and discrete problems.
Cplex 12.6.3.0

Reading parameter(s) from "C:\Users\Lenovo\Documents\GitHub\prosumage\Code\Prosumage_Opt\Dieter_Module\Original\cplex.opt"
>>  lpmethod 4
>>  threads 4
>>  epgap 1e-3
Finished reading from "C:\Users\Lenovo\Documents\GitHub\prosumage\Code\Prosumage_Opt\Dieter_Module\Original\cplex.opt"
Reading data...
Starting Cplex...
Space for names approximately 19.27 Mb
Use option 'names no' to turn use of names off
Tried aggregator 1 time.
LP Presolve eliminated 12669 rows and 38923 columns.
Aggregator did 6 substitutions.
Reduced LP has 258917 rows, 285207 columns, and 904284 nonzeros.
Presolve time = 0.75 sec. (330.47 ticks)
Parallel mode: using up to 4 threads for barrier.

***NOTE: Found 16 dense columns.

Number of nonzeros in lower triangle of A*A' = 780598
Using Approximate Minimum Degree ordering
Total time for automatic ordering = 0.44 sec. (103.90 ticks)
Summary statistics for Cholesky factor:
  Threads                   = 4
  Rows in Factor            = 258933
  Integer space required    = 745251
  Total non-zeros in factor = 3285565
  Total FP ops to factor    = 63453039
 Itn      Primal Obj        Dual Obj  Prim Inf Upper Inf  Dual Inf Inf Ratio
   0  4.6266052e+012 -1.0647068e+011 1.60e+011 1.43e+007 1.99e+010 1.00e+000
   1  6.9147216e+011  1.5140156e+010 2.29e+010 2.05e+006 2.85e+009 5.26e-007
   2  5.1890222e+011  5.0894123e+010 1.67e+010 1.49e+006 4.09e+008 2.96e-008
   3  3.6577202e+011  5.3480875e+010 1.10e+010 9.85e+005 3.48e+008 4.25e-008
   4  3.4575790e+011  4.7543894e+010 1.04e+010 9.32e+005 3.13e+008 4.89e-008
   5  2.3486768e+011  6.9415562e+010 6.07e+009 5.44e+005 9.74e+007 5.43e-008
   6  1.4201276e+011  5.4638218e+010 3.18e+009 2.85e+005 4.87e+007 9.73e-008
   7  7.6643444e+010  4.7138021e+010 1.18e+009 1.05e+005 2.63e+007 2.06e-007
   8  4.9806654e+010  3.9653421e+010 4.12e+008 3.69e+004 9.59e+006 6.16e-007
   9  4.6152023e+010  3.8114141e+010 3.13e+008 2.80e+004 6.70e+006 9.13e-007
  10  4.4143318e+010  3.6811734e+010 2.60e+008 2.33e+004 4.39e+006 1.44e-006
  11  4.1507466e+010  3.5840442e+010 1.92e+008 1.72e+004 2.82e+006 2.35e-006
  12  4.0835562e+010  3.5732838e+010 1.72e+008 1.54e+004 2.51e+006 2.68e-006
  13  3.8371684e+010  3.5100435e+010 1.13e+008 1.01e+004 1.72e+006 4.37e-006
  14  3.6743356e+010  3.4442635e+010 7.40e+007 6.63e+003 9.59e+005 8.95e-006
  15  3.5469003e+010  3.4138591e+010 4.47e+007 4.00e+003 6.41e+005 1.52e-005
  16  3.5293879e+010  3.4048425e+010 4.06e+007 3.64e+003 5.41e+005 1.89e-005
  17  3.5063784e+010  3.4001726e+010 3.50e+007 3.13e+003 4.80e+005 2.20e-005
  18  3.4722609e+010  3.3793230e+010 2.70e+007 2.42e+003 2.50e+005 5.44e-005
  19  3.4443565e+010  3.3730933e+010 2.04e+007 1.83e+003 1.79e+005 8.42e-005
  20  3.4220502e+010  3.3683450e+010 1.55e+007 1.39e+003 1.39e+005 1.16e-004
  21  3.4042729e+010  3.3648407e+010 1.15e+007 1.03e+003 1.08e+005 1.61e-004
  22  3.3892356e+010  3.3646404e+010 8.04e+006 7.20e+002 1.06e+005 1.65e-004
  23  3.3820777e+010  3.3618858e+010 6.36e+006 5.69e+002 7.56e+004 2.57e-004
  24  3.3781706e+010  3.3608660e+010 5.44e+006 4.87e+002 6.44e+004 3.14e-004
  25  3.3744273e+010  3.3586849e+010 4.58e+006 4.10e+002 4.25e+004 5.40e-004
  26  3.3732275e+010  3.3584701e+010 4.28e+006 3.83e+002 3.83e+004 6.14e-004
  27  3.3647740e+010  3.3565083e+010 2.36e+006 2.11e+002 1.99e+004 1.30e-003
  28  3.3611475e+010  3.3556857e+010 1.54e+006 1.38e+002 1.23e+004 2.31e-003
  29  3.3607553e+010  3.3555614e+010 1.45e+006 1.30e+002 1.10e+004 2.64e-003
  30  3.3593322e+010  3.3553259e+010 1.13e+006 1.01e+002 8.97e+003 3.37e-003
  31  3.3580412e+010  3.3551318e+010 8.35e+005 7.47e+001 7.15e+003 4.42e-003
  32  3.3574838e+010  3.3550461e+010 7.06e+005 6.32e+001 6.27e+003 5.16e-003
  33  3.3565668e+010  3.3548696e+010 4.92e+005 4.41e+001 4.41e+003 7.90e-003
  34  3.3560074e+010  3.3547908e+010 3.61e+005 3.23e+001 3.54e+003 1.02e-002
  35  3.3557249e+010  3.3547263e+010 2.94e+005 2.64e+001 2.82e+003 1.34e-002
  36  3.3554956e+010  3.3546727e+010 2.41e+005 2.15e+001 2.23e+003 1.76e-002
  37  3.3553747e+010  3.3546416e+010 2.12e+005 1.90e+001 1.89e+003 2.13e-002
  38  3.3552755e+010  3.3546148e+010 1.89e+005 1.70e+001 1.61e+003 2.56e-002
  39  3.3552216e+010  3.3545752e+010 1.77e+005 1.58e+001 1.20e+003 3.57e-002
  40  3.3548452e+010  3.3545353e+010 9.10e+004 8.15e+000 8.30e+002 5.34e-002
  41  3.3548316e+010  3.3545458e+010 1.65e+005 7.51e+000 7.66e+002 6.32e-002
  42  3.3547827e+010  3.3545386e+010 1.43e+005 6.49e+000 6.94e+002 7.06e-002
  43  3.3547483e+010  3.3545287e+010 1.27e+005 5.78e+000 5.93e+002 8.43e-002
  44  3.3547311e+010  3.3545197e+010 1.19e+005 5.42e+000 5.03e+002 1.01e-001
  45  3.3546706e+010  3.3545059e+010 9.21e+004 4.18e+000 3.74e+002 1.41e-001
  46  3.3546400e+010  3.3544988e+010 7.83e+004 3.56e+000 3.07e+002 1.74e-001
  47  3.3546133e+010  3.3544941e+010 6.63e+004 3.01e+000 2.63e+002 2.05e-001
  48  3.3546018e+010  3.3544840e+010 6.11e+004 2.78e+000 1.68e+002 3.33e-001
  49  3.3545574e+010  3.3544784e+010 4.15e+004 1.89e+000 1.23e+002 4.50e-001
  50  3.3545179e+010  3.3544763e+010 2.37e+004 1.08e+000 1.03e+002 5.39e-001
  51  3.3545121e+010  3.3544755e+010 2.09e+004 9.52e-001 9.30e+001 5.99e-001
  52  3.3544956e+010  3.3544727e+010 1.31e+004 5.96e-001 5.80e+001 1.00e+000
  53  3.3544939e+010  3.3544726e+010 1.23e+004 5.59e-001 5.64e+001 1.04e+000
  54  3.3544919e+010  3.3544721e+010 1.14e+004 5.16e-001 5.04e+001 1.17e+000
  55  3.3544869e+010  3.3544711e+010 9.01e+003 4.09e-001 3.89e+001 1.54e+000
  56  3.3544782e+010  3.3544708e+010 4.94e+003 2.24e-001 3.59e+001 1.67e+000
  57  3.3544757e+010  3.3544701e+010 3.66e+003 1.66e-001 2.57e+001 2.45e+000
  58  3.3544752e+010  3.3544700e+010 3.42e+003 1.55e-001 2.45e+001 2.59e+000
  59  3.3544746e+010  3.3544700e+010 3.13e+003 1.42e-001 2.39e+001 2.66e+000
  60  3.3544730e+010  3.3544694e+010 2.38e+003 1.08e-001 1.67e+001 4.00e+000
  61  3.3544710e+010  3.3544693e+010 1.48e+003 6.73e-002 1.57e+001 4.28e+000
  62  3.3544706e+010  3.3544692e+010 1.28e+003 5.83e-002 1.44e+001 4.71e+000
  63  3.3544695e+010  3.3544687e+010 7.60e+002 3.46e-002 8.89e+000 8.07e+000
  64  3.3544693e+010  3.3544683e+010 6.72e+002 3.08e-002 4.99e+000 1.60e+001
  65  3.3544680e+010  3.3544680e+010 1.65e+002 7.69e-003 2.81e+000 2.86e+001
  66  3.3544679e+010  3.3544678e+010 1.42e+002 6.57e-003 1.87e+000 4.63e+001
  67  3.3544679e+010  3.3544678e+010 1.22e+002 5.84e-003 1.68e+000 5.22e+001
  68  3.3544676e+010  3.3544678e+010 1.30e+001 1.05e-003 1.24e+000 7.15e+001
  69  3.3544676e+010  3.3544676e+010 1.30e+001 2.22e-004 4.13e-001 2.98e+002
  70  3.3544676e+010  3.3544676e+010 1.95e+001 4.13e-005 5.38e-002 2.54e+003
  71  3.3544676e+010  3.3544676e+010 1.27e+002 2.17e-006 1.16e-002 1.18e+004
Barrier time = 68.89 sec. (11795.41 ticks)
Parallel mode: deterministic, using up to 4 threads for concurrent optimization.

Dual crossover.
  Dual:  Fixing 100087 variables.
   100086 DMoves:  Infeasibility 1.28679289e-011  Objective 3.35446756e+010
    98655 DMoves:  Infeasibility 1.35074174e-011  Objective 3.35446756e+010
    97920 DMoves:  Infeasibility 1.31272770e-011  Objective 3.35446756e+010
    94198 DMoves:  Infeasibility 1.37134748e-011  Objective 3.35446756e+010
    87346 DMoves:  Infeasibility 1.37383438e-011  Objective 3.35446756e+010
    84199 DMoves:  Infeasibility 1.37596601e-011  Objective 3.35446756e+010
    81105 DMoves:  Infeasibility 1.30473410e-011  Objective 3.35446756e+010
    77769 DMoves:  Infeasibility 1.35713663e-011  Objective 3.35446756e+010
    58943 DMoves:  Infeasibility 1.30917499e-011  Objective 3.35446756e+010
    56051 DMoves:  Infeasibility 1.36388678e-011  Objective 3.35446756e+010
    53291 DMoves:  Infeasibility 1.32942546e-011  Objective 3.35446756e+010
    44827 DMoves:  Infeasibility 1.32462930e-011  Objective 3.35446756e+010
    37369 DMoves:  Infeasibility 1.39017686e-011  Objective 3.35446756e+010
    17025 DMoves:  Infeasibility 1.42250656e-011  Objective 3.35446756e+010
    12494 DMoves:  Infeasibility 1.43103307e-011  Objective 3.35446756e+010
     7880 DMoves:  Infeasibility 1.46513912e-011  Objective 3.35446756e+010
        0 DMoves:  Infeasibility 1.83209281e-011  Objective 3.35446756e+010
  Dual:  Pushed 78987, exchanged 21100.
  Primal:  Fixing 4600 variables.
     4599 PMoves:  Infeasibility 1.47792889e-010  Objective 3.35446756e+010
     3104 PMoves:  Infeasibility 1.86901161e-010  Objective 3.35446756e+010
     1667 PMoves:  Infeasibility 1.50521373e-010  Objective 3.35446756e+010
Using devex.

Primal simplex solved model.

Total crossover time = 13.45 sec. (6135.77 ticks)

Total time on 4 threads = 83.22 sec. (18271.43 ticks)
LP status(1): optimal
Cplex Time: 83.22sec (det. 18272.20 ticks)

Optimal solution found.
Objective : 33544675636.585838

--- Scenario scen1:     Records read:    1
--- Solution statistics for scenario scen1
---   Solver Status    1 Normal Completion         
---   Model Status     1 Optimal                   
---   Objective Value  33544675636.5858
---   Resource Usage   84062
---   Total Time (ms)  84312

IBM ILOG CPLEX   24.7.4 r58773 Released Sep 19, 2016 WEI x86 64bit/MS Windows 
--- GAMS/Cplex licensed for continuous and discrete problems.
Cplex 12.6.3.0

Reading parameter(s) from "C:\Users\Lenovo\Documents\GitHub\prosumage\Code\Prosumage_Opt\Dieter_Module\Original\cplex.opt"
>>  lpmethod 4
>>  threads 4
>>  epgap 1e-3
Finished reading from "C:\Users\Lenovo\Documents\GitHub\prosumage\Code\Prosumage_Opt\Dieter_Module\Original\cplex.opt"
Reading data...
Starting Cplex...
Space for names approximately 19.27 Mb
Use option 'names no' to turn use of names off
Tried aggregator 1 time.
LP Presolve eliminated 12669 rows and 38923 columns.
Aggregator did 6 substitutions.
Reduced LP has 258917 rows, 285207 columns, and 904284 nonzeros.
Presolve time = 0.98 sec. (330.47 ticks)
Parallel mode: using up to 4 threads for barrier.

***NOTE: Found 16 dense columns.

Number of nonzeros in lower triangle of A*A' = 780598
Using Approximate Minimum Degree ordering
Total time for automatic ordering = 0.56 sec. (103.90 ticks)
Summary statistics for Cholesky factor:
  Threads                   = 4
  Rows in Factor            = 258933
  Integer space required    = 745251
  Total non-zeros in factor = 3285565
  Total FP ops to factor    = 63453039
 Itn      Primal Obj        Dual Obj  Prim Inf Upper Inf  Dual Inf Inf Ratio
   0  4.6266052e+012 -1.0647068e+011 1.59e+011 1.43e+007 1.99e+010 1.00e+000
   1  6.9310658e+011  1.1108141e+010 2.30e+010 2.07e+006 2.87e+009 9.71e-007
   2  3.8492396e+011  4.0868736e+010 1.20e+010 1.08e+006 4.47e+008 6.31e-008
   3  4.8957938e+011  8.4160763e+010 1.36e+010 1.22e+006 4.87e+008 1.97e-008
   4  2.3104225e+011  8.8649806e+010 4.79e+009 4.31e+005 1.03e+008 8.18e-008
   5  1.5623991e+011  4.4337205e+010 3.08e+009 2.77e+005 3.51e+007 6.35e-008
   6  1.0101224e+011  3.4771648e+010 1.79e+009 1.61e+005 1.86e+007 1.02e-007
   7  8.5978426e+010  3.3802049e+010 1.40e+009 1.26e+005 1.13e+007 1.46e-007
   8  5.9651103e+010  3.2560102e+010 7.26e+008 6.54e+004 5.66e+006 2.85e-007
   9  4.8651131e+010  3.2952428e+010 4.17e+008 3.75e+004 3.91e+006 4.49e-007
  10  4.4948662e+010  3.2987593e+010 3.12e+008 2.81e+004 3.77e+006 4.93e-007
  11  4.3053688e+010  3.3510490e+010 2.57e+008 2.31e+004 2.23e+006 9.34e-007
  12  4.1191984e+010  3.3598427e+010 2.05e+008 1.84e+004 1.63e+006 1.38e-006
  13  3.8471677e+010  3.3607649e+010 1.31e+008 1.18e+004 1.11e+006 2.31e-006
  14  3.6745900e+010  3.3582272e+010 8.53e+007 7.68e+003 7.07e+005 4.13e-006
  15  3.5660478e+010  3.3555548e+010 5.66e+007 5.10e+003 4.25e+005 8.32e-006
  16  3.5251430e+010  3.3540336e+010 4.59e+007 4.13e+003 3.16e+005 1.24e-005
  17  3.5219105e+010  3.3550163e+010 4.48e+007 4.03e+003 3.08e+005 1.27e-005
  18  3.4902156e+010  3.3551579e+010 3.63e+007 3.26e+003 2.15e+005 2.06e-005
  19  3.4482315e+010  3.3545632e+010 2.51e+007 2.26e+003 1.47e+005 3.49e-005
  20  3.4293300e+010  3.3540471e+010 2.02e+007 1.82e+003 1.12e+005 5.00e-005
  21  3.4085278e+010  3.3537130e+010 1.47e+007 1.32e+003 8.82e+004 6.90e-005
  22  3.4020996e+010  3.3536354e+010 1.30e+007 1.17e+003 6.73e+004 9.86e-005
  23  3.3883793e+010  3.3535991e+010 9.35e+006 8.42e+002 6.14e+004 1.11e-004
  24  3.3865291e+010  3.3539187e+010 8.69e+006 7.82e+002 5.91e+004 1.17e-004
  25  3.3808969e+010  3.3541198e+010 7.15e+006 6.43e+002 4.64e+004 1.61e-004
  26  3.3704391e+010  3.3542701e+010 4.30e+006 3.87e+002 3.25e+004 2.62e-004
  27  3.3656973e+010  3.3544185e+010 3.00e+006 2.70e+002 2.38e+004 3.98e-004
  28  3.3596907e+010  3.3545455e+010 1.35e+006 1.21e+002 1.51e+004 7.47e-004
  29  3.3588643e+010  3.3545988e+010 1.12e+006 1.01e+002 1.22e+004 9.91e-004
  30  3.3586733e+010  3.3546228e+010 1.07e+006 9.60e+001 1.11e+004 1.12e-003
  31  3.3576404e+010  3.3546273e+010 7.93e+005 7.14e+001 9.22e+003 1.43e-003
  32  3.3572324e+010  3.3546292e+010 6.85e+005 6.16e+001 8.56e+003 1.57e-003
  33  3.3567776e+010  3.3546334e+010 5.64e+005 5.07e+001 7.31e+003 1.93e-003
  34  3.3565316e+010  3.3546334e+010 4.99e+005 4.49e+001 6.60e+003 2.20e-003
  35  3.3561672e+010  3.3546301e+010 4.04e+005 3.64e+001 5.39e+003 2.87e-003
  36  3.3559164e+010  3.3546239e+010 3.40e+005 3.06e+001 4.59e+003 3.54e-003
  37  3.3557193e+010  3.3546143e+010 2.91e+005 2.62e+001 3.92e+003 4.33e-003
  38  3.3555142e+010  3.3546032e+010 2.40e+005 2.16e+001 3.33e+003 5.35e-003
  39  3.3552973e+010  3.3545916e+010 1.87e+005 1.68e+001 2.81e+003 6.68e-003
  40  3.3552001e+010  3.3545828e+010 1.64e+005 1.47e+001 2.45e+003 7.95e-003
  41  3.3551249e+010  3.3545734e+010 1.46e+005 1.31e+001 2.12e+003 9.58e-003
  42  3.3550787e+010  3.3545520e+010 1.35e+005 1.21e+001 1.46e+003 1.56e-002
  43  3.3549731e+010  3.3545373e+010 1.11e+005 1.00e+001 1.19e+003 2.02e-002
  44  3.3549429e+010  3.3545280e+010 1.05e+005 9.43e+000 1.03e+003 2.44e-002
  45  3.3549177e+010  3.3545175e+010 9.91e+004 8.93e+000 8.54e+002 3.06e-002
  46  3.3548571e+010  3.3545316e+010 2.61e+005 7.00e+000 7.54e+002 4.34e-002
  47  3.3547757e+010  3.3545271e+010 2.06e+005 5.52e+000 6.97e+002 4.77e-002
  48  3.3546781e+010  3.3545184e+010 1.39e+005 3.73e+000 5.81e+002 5.97e-002
  49  3.3546227e+010  3.3545082e+010 1.01e+005 2.70e+000 4.40e+002 8.50e-002
  50  3.3545996e+010  3.3545038e+010 8.54e+004 2.28e+000 3.83e+002 1.01e-001
  51  3.3545895e+010  3.3544959e+010 7.85e+004 2.10e+000 2.84e+002 1.46e-001
  52  3.3545402e+010  3.3544907e+010 4.62e+004 1.24e+000 2.28e+002 1.92e-001
  53  3.3545352e+010  3.3544896e+010 4.29e+004 1.15e+000 2.15e+002 2.05e-001
  54  3.3545313e+010  3.3544876e+010 4.03e+004 1.08e+000 1.92e+002 2.36e-001
  55  3.3545235e+010  3.3544837e+010 3.52e+004 9.40e-001 1.50e+002 3.21e-001
  56  3.3545073e+010  3.3544827e+010 2.47e+004 6.61e-001 1.39e+002 3.49e-001
  57  3.3544952e+010  3.3544799e+010 1.67e+004 4.47e-001 1.09e+002 4.74e-001
  58  3.3544932e+010  3.3544793e+010 1.54e+004 4.13e-001 1.03e+002 5.05e-001
  59  3.3544912e+010  3.3544788e+010 1.41e+004 3.78e-001 9.77e+001 5.38e-001
  60  3.3544834e+010  3.3544779e+010 9.12e+003 2.44e-001 8.87e+001 6.05e-001
  61  3.3544825e+010  3.3544778e+010 8.51e+003 2.28e-001 8.68e+001 6.21e-001
  62  3.3544809e+010  3.3544751e+010 7.44e+003 1.99e-001 5.82e+001 1.04e+000
  63  3.3544773e+010  3.3544707e+010 5.33e+003 1.42e-001 2.01e+001 4.66e+000
  64  3.3544754e+010  3.3544706e+010 4.29e+003 1.14e-001 1.91e+001 4.90e+000
  65  3.3544729e+010  3.3544702e+010 2.95e+003 7.87e-002 1.68e+001 5.62e+000
  66  3.3544713e+010  3.3544683e+010 2.09e+003 5.57e-002 4.81e+000 2.45e+001
  67  3.3544696e+010  3.3544680e+010 9.09e+002 3.06e-002 3.08e+000 3.32e+001
  68  3.3544684e+010  3.3544677e+010 3.45e+002 1.26e-002 1.37e+000 6.83e+001
  69  3.3544679e+010  3.3544677e+010 2.31e+002 4.60e-003 1.22e+000 7.60e+001
  70  3.3544677e+010  3.3544676e+010 1.24e+002 1.91e-003 4.72e-001 2.36e+002
  71  3.3544676e+010  3.3544676e+010 1.11e+002 3.68e-004 1.19e-001 9.59e+002
  72  3.3544676e+010  3.3544676e+010 5.68e+002 1.94e-005 1.94e-002 5.88e+003
Barrier time = 68.58 sec. (11201.56 ticks)
Parallel mode: deterministic, using up to 4 threads for concurrent optimization.

Dual crossover.
  Dual:  Fixing 100073 variables.
   100072 DMoves:  Infeasibility 1.35962352e-011  Objective 3.35446756e+010
    98672 DMoves:  Infeasibility 1.31237243e-011  Objective 3.35446756e+010
    98287 DMoves:  Infeasibility 1.32835964e-011  Objective 3.35446756e+010
    96743 DMoves:  Infeasibility 1.38431488e-011  Objective 3.35446756e+010
    88806 DMoves:  Infeasibility 1.36424205e-011  Objective 3.35446756e+010
    84809 DMoves:  Infeasibility 1.32462930e-011  Objective 3.35446756e+010
    81774 DMoves:  Infeasibility 1.37632128e-011  Objective 3.35446756e+010
    78573 DMoves:  Infeasibility 1.36104461e-011  Objective 3.35446756e+010
    59888 DMoves:  Infeasibility 1.37738709e-011  Objective 3.35446756e+010
    55687 DMoves:  Infeasibility 1.38307144e-011  Objective 3.35446756e+010
    52037 DMoves:  Infeasibility 1.36282097e-011  Objective 3.35446756e+010
    40951 DMoves:  Infeasibility 1.39017686e-011  Objective 3.35446756e+010
    36462 DMoves:  Infeasibility 1.42001966e-011  Objective 3.35446756e+010
    16135 DMoves:  Infeasibility 1.49462664e-011  Objective 3.35446756e+010
     9108 DMoves:  Infeasibility 1.55857549e-011  Objective 3.35446756e+010
        0 DMoves:  Infeasibility 1.95882199e-011  Objective 3.35446756e+010
  Dual:  Pushed 79007, exchanged 21066.
  Primal:  Fixing 4600 variables.
     4599 PMoves:  Infeasibility 7.68523023e-011  Objective 3.35446756e+010
     3106 PMoves:  Infeasibility 8.41282599e-011  Objective 3.35446756e+010
     1664 PMoves:  Infeasibility 7.70796760e-011  Objective 3.35446756e+010
       25 PMoves:  Infeasibility 5.95719030e-011  Objective 3.35446756e+010
        0 PMoves:  Infeasibility 5.95719030e-011  Objective 3.35446756e+010
  Primal:  Pushed 793, exchanged 3807.
Elapsed time = 87.14 sec. (17000.44 ticks, 1 iterations)

Iteration log . . .
Iteration:     1   Dual objective     =   33544675636.589817
Reinitializing dual norms . . .

Dual simplex solved model.

Total crossover time = 18.95 sec. (6124.01 ticks)

Total time on 4 threads = 88.64 sec. (17665.81 ticks)
LP status(1): optimal
Cplex Time: 88.64sec (det. 17666.59 ticks)

Optimal solution found.
Simplex iterations after crossover:  1

Objective : 33544675636.589806

--- Scenario scen2:     Records read:    1
--- Solution statistics for scenario scen2
---   Solver Status    1 Normal Completion         
---   Model Status     1 Optimal                   
---   Objective Value  33544675636.5898
---   Resource Usage   89750
---   Total Time (ms)  89953

IBM ILOG CPLEX   24.7.4 r58773 Released Sep 19, 2016 WEI x86 64bit/MS Windows 
--- GAMS/Cplex licensed for continuous and discrete problems.
Cplex 12.6.3.0

Reading parameter(s) from "C:\Users\Lenovo\Documents\GitHub\prosumage\Code\Prosumage_Opt\Dieter_Module\Original\cplex.opt"
>>  lpmethod 4
>>  threads 4
>>  epgap 1e-3
Finished reading from "C:\Users\Lenovo\Documents\GitHub\prosumage\Code\Prosumage_Opt\Dieter_Module\Original\cplex.opt"
Reading data...
Starting Cplex...
Space for names approximately 19.27 Mb
Use option 'names no' to turn use of names off
Tried aggregator 1 time.
LP Presolve eliminated 12669 rows and 38923 columns.
Aggregator did 6 substitutions.
Reduced LP has 258917 rows, 285207 columns, and 904284 nonzeros.
Presolve time = 0.80 sec. (330.47 ticks)
Parallel mode: using up to 4 threads for barrier.

***NOTE: Found 16 dense columns.

Number of nonzeros in lower triangle of A*A' = 780598
Using Approximate Minimum Degree ordering
Total time for automatic ordering = 0.58 sec. (103.90 ticks)
Summary statistics for Cholesky factor:
  Threads                   = 4
  Rows in Factor            = 258933
  Integer space required    = 745251
  Total non-zeros in factor = 3285565
  Total FP ops to factor    = 63453039
 Itn      Primal Obj        Dual Obj  Prim Inf Upper Inf  Dual Inf Inf Ratio
   0  4.6266052e+012 -1.0647068e+011 1.67e+011 1.43e+007 1.99e+010 1.00e+000
   1  7.0608965e+011  1.4350258e+010 2.44e+010 2.10e+006 2.91e+009 4.84e-008
   2  3.4035905e+011  7.4362503e+010 1.00e+010 8.61e+005 4.48e+008 2.01e-008
   3  2.0661722e+011  9.4098290e+010 4.09e+009 3.51e+005 2.29e+008 1.73e-008
   4  1.5527088e+011  7.0358986e+010 2.64e+009 2.27e+005 6.15e+007 9.37e-008
   5  9.5805462e+010  5.7564648e+010 1.33e+009 1.14e+005 3.91e+007 1.23e-007
   6  6.7302319e+010  5.0617590e+010 6.31e+008 5.42e+004 2.20e+007 2.06e-007
   7  6.1337562e+010  4.5512359e+010 4.82e+008 4.13e+004 8.76e+006 4.27e-007
   8  5.4087163e+010  4.3021431e+010 3.14e+008 2.69e+004 4.37e+006 8.84e-007
   9  4.7143429e+010  4.2396436e+010 1.53e+008 1.32e+004 3.29e+006 1.30e-006
  10  4.6698843e+010  4.2260171e+010 1.43e+008 1.23e+004 3.03e+006 1.45e-006
  11  4.5204212e+010  4.1863887e+010 1.07e+008 9.15e+003 2.20e+006 2.10e-006
  12  4.4328663e+010  4.1616330e+010 8.56e+007 7.35e+003 1.71e+006 2.91e-006
  13  4.4064820e+010  4.1553712e+010 7.88e+007 6.77e+003 1.53e+006 3.33e-006
  14  4.3224466e+010  4.1391324e+010 6.00e+007 5.15e+003 1.29e+006 4.17e-006
  15  4.2920753e+010  4.1278294e+010 5.35e+007 4.60e+003 1.14e+006 4.90e-006
  16  4.2690169e+010  4.1200248e+010 4.87e+007 4.18e+003 1.04e+006 5.51e-006
  17  4.2474811e+010  4.1146892e+010 4.42e+007 3.80e+003 9.75e+005 5.99e-006
  18  4.2254750e+010  4.1092622e+010 3.97e+007 3.41e+003 9.10e+005 6.56e-006
  19  4.2080222e+010  4.1049655e+010 3.61e+007 3.10e+003 8.59e+005 7.07e-006
  20  4.1932419e+010  4.1006426e+010 3.30e+007 2.84e+003 8.08e+005 7.67e-006
  21  4.1807805e+010  4.0952695e+010 3.05e+007 2.62e+003 7.44e+005 8.56e-006
  22  4.1714450e+010  4.0930294e+010 2.86e+007 2.45e+003 7.18e+005 8.96e-006
  23  4.1593132e+010  4.0894725e+010 2.61e+007 2.24e+003 6.77e+005 9.69e-006
  24  4.1503179e+010  4.0845617e+010 2.43e+007 2.08e+003 6.21e+005 1.09e-005
  25  4.1333754e+010  4.0794897e+010 2.09e+007 1.80e+003 5.66e+005 1.22e-005
  26  4.1230679e+010  4.0759282e+010 1.89e+007 1.63e+003 5.29e+005 1.34e-005
  27  4.1083226e+010  4.0724037e+010 1.61e+007 1.38e+003 4.92e+005 1.46e-005
  28  4.1040344e+010  4.0702902e+010 1.53e+007 1.31e+003 4.71e+005 1.55e-005
  29  4.0995295e+010  4.0695858e+010 1.45e+007 1.24e+003 4.64e+005 1.58e-005
  30  4.0948060e+010  4.0676619e+010 1.36e+007 1.16e+003 4.45e+005 1.67e-005
  31  4.0931222e+010  4.0662209e+010 1.32e+007 1.13e+003 4.29e+005 1.76e-005
  32  4.0812543e+010  4.0630814e+010 1.09e+007 9.35e+002 3.95e+005 1.97e-005
  33  4.0646444e+010  4.0532680e+010 7.63e+006 6.55e+002 2.91e+005 3.01e-005
  34  4.0604345e+010  4.0492798e+010 6.88e+006 5.91e+002 2.55e+005 3.60e-005
  35  4.0499500e+010  4.0478048e+010 5.12e+006 4.39e+002 2.42e+005 3.83e-005
  36  4.0442418e+010  4.0460484e+010 4.13e+006 3.55e+002 2.27e+005 4.17e-005
  37  4.0411602e+010  4.0446696e+010 3.60e+006 3.09e+002 2.15e+005 4.48e-005
  38  4.0398852e+010  4.0434167e+010 3.37e+006 2.90e+002 2.03e+005 4.81e-005
  39  4.0339769e+010  4.0407871e+010 2.41e+006 2.07e+002 1.81e+005 5.60e-005
  40  4.0333285e+010  4.0395159e+010 2.31e+006 1.99e+002 1.71e+005 6.05e-005
  41  4.0311360e+010  4.0368401e+010 1.98e+006 1.70e+002 1.50e+005 7.21e-005
  42  4.0305979e+010  4.0365327e+010 1.91e+006 1.64e+002 1.47e+005 7.36e-005
  43  4.0284503e+010  4.0352857e+010 1.62e+006 1.39e+002 1.38e+005 7.99e-005
  44  4.0276147e+010  4.0343615e+010 1.51e+006 1.30e+002 1.32e+005 8.52e-005
  45  4.0248784e+010  4.0312745e+010 1.17e+006 1.00e+002 1.10e+005 1.08e-004
  46  4.0221579e+010  4.0290958e+010 8.58e+005 7.37e+001 9.56e+004 1.31e-004
  47  4.0211290e+010  4.0281278e+010 7.52e+005 6.45e+001 8.96e+004 1.42e-004
  48  4.0206851e+010  4.0276205e+010 7.07e+005 6.07e+001 8.64e+004 1.49e-004
  49  4.0191817e+010  4.0253069e+010 5.61e+005 4.81e+001 7.23e+004 1.88e-004
  50  4.0179809e+010  4.0226714e+010 4.58e+005 3.94e+001 5.73e+004 2.58e-004
  51  4.0178222e+010  4.0222199e+010 4.47e+005 3.83e+001 5.50e+004 2.73e-004
  52  4.0164805e+010  4.0204851e+010 3.51e+005 3.01e+001 4.60e+004 3.44e-004
  53  4.0156957e+010  4.0195835e+010 3.00e+005 2.57e+001 4.16e+004 3.92e-004
  54  4.0151340e+010  4.0181401e+010 2.65e+005 2.27e+001 3.47e+004 5.00e-004
  55  4.0142089e+010  4.0165708e+010 2.11e+005 1.82e+001 2.75e+004 6.80e-004
  56  4.0134885e+010  4.0156884e+010 1.74e+005 1.49e+001 2.37e+004 8.26e-004
  57  4.0127751e+010  4.0152072e+010 1.37e+005 1.18e+001 2.17e+004 9.25e-004
  58  4.0121551e+010  4.0145587e+010 1.06e+005 9.09e+000 1.90e+004 1.10e-003
  59  4.0115786e+010  4.0140859e+010 7.76e+004 6.66e+000 1.70e+004 1.27e-003
  60  4.0113942e+010  4.0137575e+010 6.86e+004 5.90e+000 1.56e+004 1.41e-003
  61  4.0109404e+010  4.0131129e+010 4.75e+004 4.09e+000 1.30e+004 1.79e-003
  62  4.0108121e+010  4.0128703e+010 4.21e+004 3.63e+000 1.21e+004 1.98e-003
  63  4.0106913e+010  4.0123214e+010 3.69e+004 3.20e+000 9.92e+003 2.55e-003
  64  4.0103428e+010  4.0114849e+010 2.44e+004 2.12e+000 6.80e+003 4.22e-003
  65  4.0102169e+010  4.0112079e+010 2.11e+004 1.79e+000 5.84e+003 5.12e-003
  66  4.0101842e+010  4.0111757e+010 2.03e+004 1.71e+000 5.73e+003 5.25e-003
  67  4.0100752e+010  4.0108232e+010 1.68e+004 1.44e+000 4.53e+003 7.09e-003
  68  4.0099305e+010  4.0106483e+010 1.40e+004 1.12e+000 3.96e+003 8.39e-003
  69  4.0098926e+010  4.0106050e+010 1.30e+004 1.03e+000 3.82e+003 8.77e-003
  70  4.0097838e+010  4.0103812e+010 1.03e+004 7.92e-001 3.09e+003 1.15e-002
  71  4.0097036e+010  4.0101437e+010 8.19e+003 6.42e-001 2.37e+003 1.55e-002
  72  4.0095317e+010  4.0097278e+010 4.24e+003 3.33e-001 1.14e+003 3.54e-002
  73  4.0094839e+010  4.0095110e+010 3.12e+003 2.47e-001 4.89e+002 1.13e-001
  74  4.0094012e+010  4.0093804e+010 1.62e+003 1.18e-001 1.45e+002 4.23e-001
  75  4.0093559e+010  4.0093468e+010 6.83e+002 4.99e-002 6.04e+001 1.00e+000
  76  4.0093416e+010  4.0093357e+010 3.61e+002 2.64e-002 2.90e+001 2.06e+000
  77  4.0093314e+010  4.0093319e+010 1.20e+002 8.82e-003 1.73e+001 3.38e+000
  78  4.0093277e+010  4.0093285e+010 1.99e+001 1.46e-003 5.15e+000 1.24e+001
  79  4.0093270e+010  4.0093273e+010 1.42e+000 1.04e-004 1.46e+000 4.38e+001
  80  4.0093269e+010  4.0093270e+010 2.67e+000 9.07e-006 1.73e-001 4.09e+002
  81  4.0093269e+010  4.0093269e+010 8.06e+000 6.19e-007 1.65e-002 4.31e+003
  82  4.0093269e+010  4.0093269e+010 7.86e+000 4.65e-008 3.26e-003 2.18e+004
Barrier time = 70.22 sec. (10929.17 ticks)
Parallel mode: deterministic, using up to 4 threads for concurrent optimization.

Dual crossover.
  Dual:  Fixing 68014 variables.
    68013 DMoves:  Infeasibility 5.39237197e-011  Objective 4.00932689e+010
    59328 DMoves:  Infeasibility 5.56701282e-011  Objective 4.00932689e+010
    48916 DMoves:  Infeasibility 5.58975019e-011  Objective 4.00932689e+010
    38757 DMoves:  Infeasibility 6.13828918e-011  Objective 4.00932689e+010
    18086 DMoves:  Infeasibility 6.20650129e-011  Objective 4.00932689e+010
        0 DMoves:  Infeasibility 6.55664582e-011  Objective 4.00932689e+010
  Dual:  Pushed 58846, exchanged 9168.
  Primal:  Fixing 11815 variables.
    11814 PMoves:  Infeasibility 3.20884062e+000  Objective 4.00932689e+010
    10062 PMoves:  Infeasibility 3.20884062e+000  Objective 4.00932689e+010
     8602 PMoves:  Infeasibility 3.20884062e+000  Objective 4.00932689e+010
     7468 PMoves:  Infeasibility 3.20884062e+000  Objective 4.00932689e+010
     5888 PMoves:  Infeasibility 3.20884062e+000  Objective 4.00932689e+010
     4004 PMoves:  Infeasibility 3.20884061e+000  Objective 4.00932689e+010
     2133 PMoves:  Infeasibility 3.20884061e+000  Objective 4.00932689e+010
   Elapsed crossover time = 15.75 sec. (10804.08 ticks, 2133 PMoves)
      411 PMoves:  Infeasibility 3.20884061e+000  Objective 4.00932689e+010
        0 PMoves:  Infeasibility 5.17893284e-010  Objective 4.00932689e+010
  Primal:  Pushed 2703, exchanged 9112.
Reinitializing dual norms . . .

Dual simplex solved model.

Total crossover time = 37.11 sec. (22377.67 ticks)

Total time on 4 threads = 108.23 sec. (33647.09 ticks)
LP status(1): optimal
Cplex Time: 108.23sec (det. 33647.87 ticks)

Optimal solution found.
Objective : 40093268939.356316

--- Scenario scen3:     Records read:    1
--- Solution statistics for scenario scen3
---   Solver Status    1 Normal Completion         
---   Model Status     1 Optimal                   
---   Objective Value  40093268939.3563
---   Resource Usage   109125
---   Total Time (ms)  109391
--- Restarting execution
--- DIETER.gms(3237) 195 Mb
--- Reading solution for model DIETER
--- Executing after solve: elapsed 0:06:45.857
--- DIETER.gms(3237) 195 Mb
---
--- scattering and reading gdx file
---
--- DIETER.gms(3237) 196 Mb
--- marginal Id = con5a_minRES maps to marginal_con5a
--- marginal Id = con1a_bal maps to marginal_con1a
--- level    Id = Z maps to lev_Z
--- level    Id = G_L maps to lev_G_L
--- level    Id = G_UP maps to lev_G_UP
--- level    Id = G_DO maps to lev_G_DO
--- level    Id = G_RES maps to lev_G_RES
--- level    Id = CU maps to lev_CU
--- level    Id = STO_IN maps to lev_STO_IN
--- level    Id = STO_OUT maps to lev_STO_OUT
--- level    Id = STO_L maps to lev_STO_L
--- level    Id = N_TECH maps to lev_N_TECH
--- level    Id = N_STO_E maps to lev_N_STO_E
--- level    Id = N_STO_P maps to lev_N_STO_P
--- level    Id = NTC maps to lev_NTC
--- level    Id = F maps to lev_F
--- level    Id = RSVR_OUT maps to lev_RSVR_OUT
--- level    Id = RSVR_L maps to lev_RSVR_L
--- level    Id = N_RSVR_E maps to lev_N_RSVR_E
--- level    Id = N_RSVR_P maps to lev_N_RSVR_P
--- level    Id = G_INFES maps to lev_G_INFES
--- DIETER.gms(3237) 212 Mb
--- GDXin=C:\Users\Lenovo\Documents\GitHub\prosumage\Code\Prosumage_Opt\Dieter_Module\Original\225a\scenrep.dat
--- Scatter finished in 266 ms
--- DIETER.gms(4655) 221 Mb
--- GDX File C:\Users\Lenovo\Documents\GitHub\prosumage\Code\Prosumage_Opt\Dieter_Module\Original\results.gdx
--- GDX File C:\Users\Lenovo\Documents\GitHub\prosumage\Code\Prosumage_Opt\Dieter_Module\Original\test.gdx
*** Status: Normal completion
--- Job DIETER.gms Stop 11/24/18 19:31:07 elapsed 0:06:54.478
